(set-logic QF_S)
(declare-fun var0 () String)
(declare-fun var1 () Int)
(declare-fun var2 () Int)
(declare-fun var3 () String)
(declare-fun var4 () String)
(declare-fun var5 () Int)
(declare-fun var6 () String)
(declare-fun var7 () Int)
(assert (<= (str.to.int (str.substr var0 var1 var2)) (str.indexof var3 var4 var5)))
(assert (str.contains var6 "^"))
(assert (str.suffixof var3 var6))
(assert (<= var7 var1))
(check-sat)